NAME plusBCPIns_8_7_2.txt
ROWS
 N cost
 L KL
 L C1,3
 L C1,6
 L C1,7
 L C2,4
 L C2,7
 L C3,5
 L C4,5
 L C4,7
 L C5,7
 L E0,1
 L E0,2
 L E0,3
 L E0,4
 L E0,5
 L E0,6
 L E0,7
 L E1,2
 L E1,4
 L E1,5
 L E2,3
 L E2,5
 L E2,6
 L E3,4
 L E3,6
 L E3,7
 L E4,6
 L E5,6
 L E6,7
 L S1,2,7
 L S1,4,7
 L S1,5,3
 L S1,5,7
 L S2,5,4
 L S2,5,7
 L S3,4,5
 L S3,6,1
 L S3,7,1
 L S3,7,5
 L S6,7,1
 L I0,1
 L I0,2
 L I0,3
 L I0,4
 L I0,5
 L I0,6
 L I0,7
 L I1,2
 L I1,4
 L I1,5
 L I2,3
 L I2,5
 L I2,6
 L I3,4
 L I3,6
 L I3,7
 L I4,6
 L I5,6
 L I6,7
COLUMNS
 w0,1 cost 0
 w0,1 KL 1
 w0,1 I0,1 1
 w0,2 cost 0
 w0,2 KL 1
 w0,2 I0,2 1
 w0,3 cost 0
 w0,3 KL 1
 w0,3 I0,3 1
 w0,4 cost 0
 w0,4 KL 1
 w0,4 I0,4 1
 w0,5 cost 0
 w0,5 KL 1
 w0,5 I0,5 1
 w0,6 cost 0
 w0,6 KL 1
 w0,6 I0,6 1
 w0,7 cost 0
 w0,7 KL 1
 w0,7 I0,7 1
 w1,2 cost 0
 w1,2 KL 1
 w1,2 I1,2 1
 w1,4 cost 0
 w1,4 KL 1
 w1,4 I1,4 1
 w1,5 cost 0
 w1,5 KL 1
 w1,5 I1,5 1
 w2,3 cost 0
 w2,3 KL 1
 w2,3 I2,3 1
 w2,5 cost 0
 w2,5 KL 1
 w2,5 I2,5 1
 w2,6 cost 0
 w2,6 KL 1
 w2,6 I2,6 1
 w3,4 cost 0
 w3,4 KL 1
 w3,4 I3,4 1
 w3,6 cost 0
 w3,6 KL 1
 w3,6 I3,6 1
 w3,7 cost 0
 w3,7 KL 1
 w3,7 I3,7 1
 w4,6 cost 0
 w4,6 KL 1
 w4,6 I4,6 1
 w5,6 cost 0
 w5,6 KL 1
 w5,6 I5,6 1
 w6,7 cost 0
 w6,7 KL 1
 w6,7 I6,7 1
 y0,1 cost 0
 y0,1 E0,1 -1
 y0,1 I0,1 1
 y0,2 cost 0
 y0,2 E0,2 -1
 y0,2 I0,2 1
 y0,3 cost 0
 y0,3 E0,3 -1
 y0,3 I0,3 1
 y0,4 cost 0
 y0,4 E0,4 -1
 y0,4 I0,4 1
 y0,5 cost 0
 y0,5 E0,5 -1
 y0,5 I0,5 1
 y0,6 cost 0
 y0,6 E0,6 -1
 y0,6 I0,6 1
 y0,7 cost 0
 y0,7 E0,7 -1
 y0,7 I0,7 1
 y1,2 cost 0
 y1,2 E1,2 -1
 y1,2 I1,2 1
 y1,2 S1,2,7 -1
 y1,4 cost 0
 y1,4 E1,4 -1
 y1,4 I1,4 1
 y1,4 S1,4,7 -1
 y1,5 cost 0
 y1,5 E1,5 -1
 y1,5 I1,5 1
 y1,5 S1,5,3 -1
 y1,5 S1,5,7 -1
 y2,3 cost 0
 y2,3 E2,3 -1
 y2,3 I2,3 1
 y2,5 cost 0
 y2,5 E2,5 -1
 y2,5 I2,5 1
 y2,5 S2,5,4 -1
 y2,5 S2,5,7 -1
 y2,6 cost 0
 y2,6 E2,6 -1
 y2,6 I2,6 1
 y3,4 cost 0
 y3,4 E3,4 -1
 y3,4 I3,4 1
 y3,4 S3,4,5 -1
 y3,6 cost 0
 y3,6 E3,6 -1
 y3,6 I3,6 1
 y3,6 S3,6,1 -1
 y3,7 cost 0
 y3,7 E3,7 -1
 y3,7 I3,7 1
 y3,7 S3,7,1 -1
 y3,7 S3,7,5 -1
 y4,6 cost 0
 y4,6 E4,6 -1
 y4,6 I4,6 1
 y5,6 cost 0
 y5,6 E5,6 -1
 y5,6 I5,6 1
 y6,7 cost 0
 y6,7 E6,7 -1
 y6,7 I6,7 1
 y6,7 S6,7,1 -1
 x0 cost 1
 x0 E0,1 1 
 x0 E0,2 1 
 x0 E0,3 1 
 x0 E0,4 1 
 x0 E0,5 1 
 x0 E0,6 1 
 x0 E0,7 1 
 x1 cost 1
 x1 E0,1 1 
 x1 E1,2 1 
 x1 E1,4 1 
 x1 E1,5 1 
 x1 S1,2,7 1
 x1 S1,4,7 1
 x1 S1,5,3 1
 x1 S1,5,7 1
 x1 S3,6,1 1
 x1 S3,7,1 1
 x1 S6,7,1 1
 x1 C1,3 1 
 x1 C1,6 1 
 x1 C1,7 1 
 x2 cost 1
 x2 E0,2 1 
 x2 E1,2 1 
 x2 E2,3 1 
 x2 E2,5 1 
 x2 E2,6 1 
 x2 S1,2,7 1
 x2 S2,5,4 1
 x2 S2,5,7 1
 x2 C2,4 1 
 x2 C2,7 1 
 x3 cost 1
 x3 E0,3 1 
 x3 E2,3 1 
 x3 E3,4 1 
 x3 E3,6 1 
 x3 E3,7 1 
 x3 S1,5,3 1
 x3 S3,4,5 1
 x3 S3,6,1 1
 x3 S3,7,1 1
 x3 S3,7,5 1
 x3 C1,3 1 
 x3 C3,5 1 
 x4 cost 1
 x4 E0,4 1 
 x4 E1,4 1 
 x4 E3,4 1 
 x4 E4,6 1 
 x4 S1,4,7 1
 x4 S2,5,4 1
 x4 S3,4,5 1
 x4 C2,4 1 
 x4 C4,5 1 
 x4 C4,7 1 
 x5 cost 1
 x5 E0,5 1 
 x5 E1,5 1 
 x5 E2,5 1 
 x5 E5,6 1 
 x5 S1,5,3 1
 x5 S1,5,7 1
 x5 S2,5,4 1
 x5 S2,5,7 1
 x5 S3,4,5 1
 x5 S3,7,5 1
 x5 C3,5 1 
 x5 C4,5 1 
 x5 C5,7 1 
 x6 cost 1
 x6 E0,6 1 
 x6 E2,6 1 
 x6 E3,6 1 
 x6 E4,6 1 
 x6 E5,6 1 
 x6 E6,7 1 
 x6 S3,6,1 1
 x6 S6,7,1 1
 x6 C1,6 1 
 x7 cost 1
 x7 E0,7 1 
 x7 E3,7 1 
 x7 E6,7 1 
 x7 S1,2,7 1
 x7 S1,4,7 1
 x7 S1,5,7 1
 x7 S2,5,7 1
 x7 S3,7,1 1
 x7 S3,7,5 1
 x7 S6,7,1 1
 x7 C1,7 1 
 x7 C2,7 1 
 x7 C4,7 1 
 x7 C5,7 1 
RHS
 rhs KL 5
 rhs C1,3 1
 rhs C1,6 1
 rhs C1,7 1
 rhs C2,4 1
 rhs C2,7 1
 rhs C3,5 1
 rhs C4,5 1
 rhs C4,7 1
 rhs C5,7 1
 rhs S1,2,7 1
 rhs S1,4,7 1
 rhs S1,5,3 1
 rhs S1,5,7 1
 rhs S2,5,4 1
 rhs S2,5,7 1
 rhs S3,4,5 1
 rhs S3,6,1 1
 rhs S3,7,1 1
 rhs S3,7,5 1
 rhs S6,7,1 1
 rhs E0,1 1
 rhs I0,1 1
 rhs E0,2 1
 rhs I0,2 1
 rhs E0,3 1
 rhs I0,3 1
 rhs E0,4 1
 rhs I0,4 1
 rhs E0,5 1
 rhs I0,5 1
 rhs E0,6 1
 rhs I0,6 1
 rhs E0,7 1
 rhs I0,7 1
 rhs E1,2 1
 rhs I1,2 1
 rhs E1,4 1
 rhs I1,4 1
 rhs E1,5 1
 rhs I1,5 1
 rhs E2,3 1
 rhs I2,3 1
 rhs E2,5 1
 rhs I2,5 1
 rhs E2,6 1
 rhs I2,6 1
 rhs E3,4 1
 rhs I3,4 1
 rhs E3,6 1
 rhs I3,6 1
 rhs E3,7 1
 rhs I3,7 1
 rhs E4,6 1
 rhs I4,6 1
 rhs E5,6 1
 rhs I5,6 1
 rhs E6,7 1
 rhs I6,7 1
BOUNDS
 LI  bound  w0,1  0.0000000
 UI  bound  w0,1  1.0000000
 LI  bound  y0,1  0.0000000
 UI  bound  y0,1  1.0000000
 LI  bound  w0,2  0.0000000
 UI  bound  w0,2  1.0000000
 LI  bound  y0,2  0.0000000
 UI  bound  y0,2  1.0000000
 LI  bound  w0,3  0.0000000
 UI  bound  w0,3  1.0000000
 LI  bound  y0,3  0.0000000
 UI  bound  y0,3  1.0000000
 LI  bound  w0,4  0.0000000
 UI  bound  w0,4  1.0000000
 LI  bound  y0,4  0.0000000
 UI  bound  y0,4  1.0000000
 LI  bound  w0,5  0.0000000
 UI  bound  w0,5  1.0000000
 LI  bound  y0,5  0.0000000
 UI  bound  y0,5  1.0000000
 LI  bound  w0,6  0.0000000
 UI  bound  w0,6  1.0000000
 LI  bound  y0,6  0.0000000
 UI  bound  y0,6  1.0000000
 LI  bound  w0,7  0.0000000
 UI  bound  w0,7  1.0000000
 LI  bound  y0,7  0.0000000
 UI  bound  y0,7  1.0000000
 LI  bound  w1,2  0.0000000
 UI  bound  w1,2  1.0000000
 LI  bound  y1,2  0.0000000
 UI  bound  y1,2  1.0000000
 LI  bound  w1,4  0.0000000
 UI  bound  w1,4  1.0000000
 LI  bound  y1,4  0.0000000
 UI  bound  y1,4  1.0000000
 LI  bound  w1,5  0.0000000
 UI  bound  w1,5  1.0000000
 LI  bound  y1,5  0.0000000
 UI  bound  y1,5  1.0000000
 LI  bound  w2,3  0.0000000
 UI  bound  w2,3  1.0000000
 LI  bound  y2,3  0.0000000
 UI  bound  y2,3  1.0000000
 LI  bound  w2,5  0.0000000
 UI  bound  w2,5  1.0000000
 LI  bound  y2,5  0.0000000
 UI  bound  y2,5  1.0000000
 LI  bound  w2,6  0.0000000
 UI  bound  w2,6  1.0000000
 LI  bound  y2,6  0.0000000
 UI  bound  y2,6  1.0000000
 LI  bound  w3,4  0.0000000
 UI  bound  w3,4  1.0000000
 LI  bound  y3,4  0.0000000
 UI  bound  y3,4  1.0000000
 LI  bound  w3,6  0.0000000
 UI  bound  w3,6  1.0000000
 LI  bound  y3,6  0.0000000
 UI  bound  y3,6  1.0000000
 LI  bound  w3,7  0.0000000
 UI  bound  w3,7  1.0000000
 LI  bound  y3,7  0.0000000
 UI  bound  y3,7  1.0000000
 LI  bound  w4,6  0.0000000
 UI  bound  w4,6  1.0000000
 LI  bound  y4,6  0.0000000
 UI  bound  y4,6  1.0000000
 LI  bound  w5,6  0.0000000
 UI  bound  w5,6  1.0000000
 LI  bound  y5,6  0.0000000
 UI  bound  y5,6  1.0000000
 LI  bound  w6,7  0.0000000
 UI  bound  w6,7  1.0000000
 LI  bound  y6,7  0.0000000
 UI  bound  y6,7  1.0000000
 LI  bound  x0  0.0000000
 UI  bound  x0  1.0000000
 LI  bound  x1  0.0000000
 UI  bound  x1  1.0000000
 LI  bound  x2  0.0000000
 UI  bound  x2  1.0000000
 LI  bound  x3  0.0000000
 UI  bound  x3  1.0000000
 LI  bound  x4  0.0000000
 UI  bound  x4  1.0000000
 LI  bound  x5  0.0000000
 UI  bound  x5  1.0000000
 LI  bound  x6  0.0000000
 UI  bound  x6  1.0000000
 LI  bound  x7  0.0000000
 UI  bound  x7  1.0000000
ENDATA